NAME : instance_10
COMMENT : Converted from simplified format
TYPE : CVRP
DIMENSION : 9
EDGE_WEIGHT_TYPE : EUC_2D
CAPACITY : 20
NODE_COORD_SECTION
1 0 0
2 94 76
3 86 57
4 5 2
5 74 9
6 11 74
7 7 59
8 53 63
9 100 83
DEMAND_SECTION
1 0
2 10
3 6
4 1
5 10
6 4
7 2
8 2
9 5
DEPOT_SECTION
1
EOF
